WARNING: for repeatability, setting FPU to use double precision
============================[ Problem Statistics ]=============================
|                                                                             |
|  Number of variables:        196471                                         |
|  Number of clauses:          457934                                         |
|  Parse time:                   0.16 s                                       |
|                                                                             |
============================[ Search Statistics ]==============================
| Conflicts |          ORIGINAL         |          LEARNT          | Progress |
|           |    Vars  Clauses Literals |    Limit  Clauses Lit/Cl |          |
===============================================================================
|       100 |  108742   439881   987504 |   161289      100     26 | 44.652 % |
|       250 |  108742   439881   987504 |   177418      250     48 | 44.652 % |
|       475 |  108742   439881   987504 |   195160      475     64 | 44.652 % |
|       812 |  108742   439881   987504 |   214676      812     66 | 44.652 % |
===============================================================================
restarts              : 8
conflicts             : 1284           (2488 /sec)
decisions             : 12295          (0.00 % random) (23826 /sec)
propagations          : 2628841        (5094337 /sec)
conflict literals     : 77778          (5.45 % deleted)
Memory used           : 52.00 MB
CPU time              : 0.516032 s

SATISFIABLE
